n_machines = 10;
n_resources = 15;
n_jobs = 75;
horizon = 380;
LB = 38;
n_jobs_per_resource = [5, 5, 5, 5, 5, 5, 5, 5, 5, 5, 5, 5, 5, 5, 5];
duration = [5, 1, 8, 2, 3, 8, 6, 3, 8, 7, 4, 5, 6, 1, 3, 5, 5, 7, 1, 1, 2, 6, 9, 8, 6, 3, 2, 2, 6, 9, 3, 7, 1, 1, 6, 3, 8, 8, 2, 2, 9, 9, 9, 9, 2, 5, 1, 9, 1, 2, 9, 3, 8, 4, 2, 2, 2, 1, 7, 9, 8, 3, 9, 8, 5, 5, 3, 2, 4, 9, 6, 9, 9, 5, 9]